20
99
3
25
51
119
65
29
70
36
25
152
1
22
3
102
65
117
104
157
81
63
35
138
78
56
63
175
3
42
93
24
144
24
89
1
124
34
82
91
161
26
161
152
135
166
44
113
144
158
101
119
142
168
130
40
29
126
62
97
16
53
61
7
45
83
158
58
6
64
114
47
128
90
151
136
154
182
96
164
51
175
167
111
30
43
140
58
85
110
147
83
170
159
95
67
65
89
127
21
